
Gurobi 9.5.0 (win64) logging started Fri May 13 01:35:04 2022

Set parameter LogFile to value "../results/logs/log_socfb-Syracuse56_46_250_2022_05_13_01_34.log"
Set parameter LazyConstraints to value 1
Gurobi Optimizer version 9.5.0 build v9.5.0rc5 (win64)
Thread count: 6 physical cores, 12 logical processors, using up to 12 threads
Optimize a model with 1182053 rows, 40959 columns and 5708428 nonzeros
Model fingerprint: 0xf8ca6e27
Variable types: 0 continuous, 40959 integer (40959 binary)
Coefficient statistics:
  Matrix range     [1e+00, 5e+01]
  Objective range  [1e+00, 1e+00]
  Bounds range     [1e+00, 1e+00]
  RHS range        [1e+00, 3e+02]

User MIP start produced solution with objective 6985 (1.30s)
Loaded user MIP start with objective 6985
Processed MIP start in 1.34 seconds (0.74 work units)

Presolve removed 15815 rows and 5251 columns (presolve time = 5s) ...
Presolve removed 25708 rows and 5251 columns (presolve time = 10s) ...
Presolve removed 37761 rows and 5251 columns (presolve time = 15s) ...
Presolve removed 44367 rows and 5251 columns (presolve time = 20s) ...
Presolve removed 49830 rows and 5251 columns (presolve time = 25s) ...
Presolve removed 55640 rows and 5251 columns (presolve time = 30s) ...
Presolve removed 61695 rows and 5251 columns (presolve time = 35s) ...
Presolve removed 62325 rows and 5251 columns (presolve time = 40s) ...
Presolve removed 62325 rows and 5251 columns (presolve time = 45s) ...
Presolve removed 62325 rows and 5251 columns (presolve time = 50s) ...
Presolve removed 62325 rows and 5251 columns (presolve time = 55s) ...
Presolve removed 62325 rows and 5251 columns (presolve time = 60s) ...
Presolve removed 62325 rows and 5251 columns (presolve time = 65s) ...
Presolve removed 62325 rows and 5251 columns (presolve time = 70s) ...
Presolve removed 62325 rows and 5251 columns (presolve time = 75s) ...
Presolve removed 62325 rows and 5251 columns (presolve time = 80s) ...
Presolve removed 62325 rows and 5251 columns (presolve time = 85s) ...
Presolve removed 62325 rows and 5251 columns (presolve time = 90s) ...
Presolve removed 62325 rows and 5251 columns (presolve time = 95s) ...
Presolve removed 62325 rows and 5251 columns (presolve time = 100s) ...
Presolve removed 62325 rows and 5251 columns (presolve time = 105s) ...
Presolve removed 62325 rows and 5251 columns (presolve time = 110s) ...
Presolve removed 62325 rows and 5251 columns (presolve time = 115s) ...
Presolve removed 62325 rows and 5251 columns (presolve time = 120s) ...
Presolve removed 62325 rows and 5251 columns (presolve time = 125s) ...
Presolve removed 66743 rows and 5251 columns (presolve time = 131s) ...
Presolve removed 595724 rows and 5251 columns (presolve time = 135s) ...
Presolve removed 595724 rows and 5251 columns (presolve time = 142s) ...
Presolve removed 595723 rows and 5250 columns
Presolve time: 142.57s
Presolved: 586330 rows, 35709 columns, 3770302 nonzeros
Variable types: 0 continuous, 35709 integer (35709 binary)
Found heuristic solution: objective 7064.0000000

Deterministic concurrent LP optimizer: primal simplex, dual simplex, and barrier
Showing barrier log only...

Root barrier log...

Elapsed ordering time = 5s
Elapsed ordering time = 10s
Elapsed ordering time = 15s
Elapsed ordering time = 20s
Elapsed ordering time = 25s
Elapsed ordering time = 30s
Elapsed ordering time = 35s
Elapsed ordering time = 40s
Elapsed ordering time = 45s
Elapsed ordering time = 50s
Ordering time: 51.58s

Barrier performed 0 iterations in 210.85 seconds (111.99 work units)
Barrier solve interrupted - model solved by another algorithm

Concurrent spin time: 0.58s

Solved with dual simplex

Root relaxation: objective 8.317437e+03, 21547 iterations, 65.89 seconds (59.91 work units)

    Nodes    |    Current Node    |     Objective Bounds      |     Work
 Expl Unexpl |  Obj  Depth IntInf | Incumbent    BestBd   Gap | It/Node Time

     0     0 8317.43674    0  994 7064.00000 8317.43674  17.7%     -  231s
H    0     0                    7098.0000000 8317.43674  17.2%     -  232s
H    0     0                    7104.0000000 8317.43674  17.1%     -  232s
